\ This file has been generated by DOcplex
\ ENCODING=ISO-8859-1
\Problem name: random_problem.lp

Minimize
 obj: - 0.005595097254 x0 - 0.002797548627 x1 - 0.001398774313 x2
      + 0.016030447091 x3 + 0.008015223545 x4 + 0.004007611773 x5 + [
      0.002805069494 x0^2 + 0.002805069494 x0*x1 + 0.001402534747 x0*x2
      + 0.002949118007 x0*x3 + 0.001474559004 x0*x4 + 0.000737279502 x0*x5
      + 0.000701267374 x1^2 + 0.000701267374 x1*x2 + 0.001474559004 x1*x3
      + 0.000737279502 x1*x4 + 0.000368639751 x1*x5 + 0.000175316843 x2^2
      + 0.000737279502 x2*x3 + 0.000368639751 x2*x4 + 0.000184319875 x2*x5
      + 0.004983066498 x3^2 + 0.004983066498 x3*x4 + 0.002491533249 x3*x5
      + 0.001245766625 x4^2 + 0.001245766625 x4*x5 + 0.000311441656 x5^2 ]/2
Subject To
 c0: 4 x0 + 2 x1 + x2 + 4 x3 + 2 x4 + x5 = 7

Bounds
 0 <= x0 <= 1
 0 <= x1 <= 1
 0 <= x2 <= 1
 0 <= x3 <= 1
 0 <= x4 <= 1
 0 <= x5 <= 1

Binaries
 x0 x1 x2 x3 x4 x5
End
